42887711823108711975011,13,1,2,010,8,1,2,010,12,1,2,07,14,1,2,014,2,1,2,07,9,1,2,011,8,1,2,012,13,1,2,014,4,1,2,01,9,1,2,08,14,1,2,08,4,1,2,08,6,1,2,05,11,1,2,010,13,1,2,08,5,1,2,06,6,1,2,013,6,1,2,07,7,1,2,09,9,1,2,014,10,1,2,015,10,1,2,012,8,1,2,014,9,1,2,06,13,1,2,08,14,1,2,013,12,1,2,07,4,1,2,02,6,1,2,01,10,1,2,01,9,1,2,013,10,1,2,014,10,1,2,04,10,1,2,09,4,1,2,01,7,1,2,08,1,1,2,03,4,1,2,06,13,1,2,07,4,1,2,01,6,1,2,015,2,1,2,014,13,1,2,09,4,1,2,012,4,1,2,015,2,1,2,08,8,1,2,07,8,1,2,07,5,1,2,04,9,1,2,0